
0	0	0
-68	20	12
2	-54	26
-24	-30	1
6	-30	20
-16	-18	2
18	-10	13
-32	-34	20
-40	-2	7
2	8	10
-38	-42	15
-38	-4	7
-48	-24	24
20	-24	10
12	-12	12
-52	10	23
-66	-4	13
-2	26	19
-72	-54	9
-34	6	12
-46	26	6
-24	40	9
-26	-30	22
6	-2	18
-68	-4	19
-54	-50	20
16	-20	24
-58	26	10
-14	14	4
-48	42	20
8	-32	15
-54	38	13
-16	-24	12
-48	-2	3
-66	36	7
-64	-28	18
-16	-14	3
-8	-54	23
2	-16	1
-28	-26	17
-72	34	13
-42	32	6
-58	-10	22
16	-14	20
-52	-52	21
22	6	2
